results_rootrelaxation/bin012_060_042.srr.sol
solution status: optimal solution found
objective value:                     1.68666666666667
_var687_                            0.266666666666667 	(obj:0)
_var693_                            0.159999999999999 	(obj:0)
_var695_                            0.326666666666667 	(obj:0)
_var696_                            0.300000000000002 	(obj:0)
_var705_                            0.406666666666667 	(obj:0)
_var712_                            0.333333333333333 	(obj:0)
_var728_                            0.266666666666667 	(obj:0)
_var731_                            0.326666666666666 	(obj:0)
_var759_                            0.440000000000001 	(obj:0)
_var761_                                         0.18 	(obj:0)
_var762_                            0.026666666666671 	(obj:1)
_var767_                            0.213333333333332 	(obj:0)
_var796_                            0.506666666666667 	(obj:1)
_var799_                            0.140000000000001 	(obj:0)
_var802_                            0.226666666666671 	(obj:0)
_var812_                            0.120000000000001 	(obj:0)
_var820_                            0.406666666666668 	(obj:0)
_var833_                            0.373333333333332 	(obj:0)
_var839_                            0.113333333333331 	(obj:1)
_var840_                           0.0399999999999999 	(obj:1)
_var842_                           0.0133333333333354 	(obj:0)
_var843_                            0.106666666666664 	(obj:0)
_var847_                            0.193333333333335 	(obj:0)
_var848_                            0.173333333333334 	(obj:0)
_var850_                             0.35333333333333 	(obj:1)
_var853_                            0.393333333333332 	(obj:0)
_var857_                           0.0800000000000001 	(obj:1)
_var858_                            0.140000000000001 	(obj:0)
_var862_                            0.366666666666666 	(obj:1)
_var864_                            0.186666666666667 	(obj:0)
_var868_                           0.0333333333333337 	(obj:1)
_var870_                           0.0733333333333338 	(obj:0)
_var878_                           0.0333333333333337 	(obj:0)
_var881_                            0.113333333333332 	(obj:0)
_var884_                           0.0866666666666666 	(obj:0)
_var885_                            0.240000000000001 	(obj:0)
_var889_                           0.0466666666666661 	(obj:0)
_var891_                           0.0600000000000012 	(obj:0)
_var898_                           0.0466666666666687 	(obj:0)
_var899_                            0.326666666666666 	(obj:0)
_var900_                           0.0533333333333325 	(obj:1)
_var901_                                         0.12 	(obj:0)
_var907_                           0.0333333333333346 	(obj:0)
_var908_                                         0.26 	(obj:0)
_var911_                           0.0533333333333365 	(obj:0)
_var915_                            0.386666666666669 	(obj:0)
_var916_                           0.0333333333333347 	(obj:0)
_var917_                            0.160000000000001 	(obj:0)
_var921_                                         0.26 	(obj:0)
_var924_                           0.0666666666666646 	(obj:0)
_var925_                            0.226666666666666 	(obj:0)
_var927_                            0.166666666666667 	(obj:0)
_var929_                            0.179999999999998 	(obj:0)
_var930_                            0.373333333333331 	(obj:0)
_var934_                           0.0866666666666683 	(obj:1)
_var935_                           0.0266666666666659 	(obj:1)
_var936_                            0.206666666666666 	(obj:0)
_var941_                           0.0199999999999981 	(obj:0)
_var943_                           0.0466666666666647 	(obj:0)
