results_rootrelaxation/bin012_060_042.srr.log
SCIP version 8.0.3.5 [precision: 8 byte] [memory: block] [mode: optimized] [LP solver: Soplex 6.0.1.3] [GitHash: 438792519e]
Copyright (c) 2002-2023 Zuse Institute Berlin (ZIB)

External libraries: 
  Readline 8.1         GNU library for command line editing (gnu.org/s/readline)
  Soplex 6.0.1.3       Linear Programming Solver developed at Zuse Institute Berlin (soplex.zib.de) [GitHash: 713be0fe]
  CppAD 20180000.0     Algorithmic Differentiation of C++ algorithms developed by B. Bell (github.com/coin-or/CppAD)
  ZLIB 1.2.11          General purpose compression library by J. Gailly and M. Adler (zlib.net)
  bliss 0.77           Computing Graph Automorphism Groups by T. Junttila and P. Kaski (www.tcs.hut.fi/Software/bliss/)

user parameter file <scip.set> not found - using default parameters

srr/relaxation = TRUE

read problem <instances/bin012_060_042.srr>
============

Original problem: 
original problem has 0 variables (0 bin, 0 int, 0 impl, 0 cont) and 77 constraints

presolving:
presolving (1 rounds: 1 fast, 1 medium, 1 exhaustive):
 0 deleted vars, 0 deleted constraints, 0 added constraints, 0 tightened bounds, 0 added holes, 0 changed sides, 0 changed coefficients
 0 implications, 0 cliques
presolved problem has 0 variables (0 bin, 0 int, 0 impl, 0 cont) and 77 constraints
     77 constraints of type <linear>
Presolving Time: 0.00

 time | node  | left  |LP iter|LP it/n|mem/heur|mdpt |vars |cons |rows |cuts |sepa|confs|strbr|  dualbound   | primalbound  |  gap   | compl. 
  0.0s|     1 |     0 |     1 |     - |   710k |   0 |   1 |  77 |  77 |   0 |  0 |   0 |   0 |      --      |      --      |    Inf | unknown
r 0.0s|     1 |     0 |   834 |     - |simplero|   0 | 682 |  77 |  77 |   0 |  0 |   0 |   0 |      --      | 2.092619e+01 |    Inf | unknown
r 0.0s|     1 |     0 |   886 |     - |simplero|   0 | 693 |  77 |  77 |   0 |  0 |   0 |   0 |      --      | 1.840381e+01 |    Inf | unknown
r 0.0s|     1 |     0 |   930 |     - |simplero|   0 | 704 |  77 |  77 |   0 |  0 |   0 |   0 |      --      | 1.623186e+01 |    Inf | unknown
r 0.0s|     1 |     0 |  1001 |     - |simplero|   0 | 715 |  77 |  77 |   0 |  0 |   0 |   0 |      --      | 1.308634e+01 |    Inf | unknown
r 0.1s|     1 |     0 |  1070 |     - |simplero|   0 | 726 |  77 |  77 |   0 |  0 |   0 |   0 |      --      | 1.160308e+01 |    Inf | unknown
r 0.1s|     1 |     0 |  1120 |     - |simplero|   0 | 737 |  77 |  77 |   0 |  0 |   0 |   0 |      --      | 9.494514e+00 |    Inf | unknown
r 0.1s|     1 |     0 |  1127 |     - |simplero|   0 | 737 |  77 |  77 |   0 |  0 |   0 |   0 |      --      | 9.478438e+00 |    Inf | unknown
r 0.1s|     1 |     0 |  1176 |     - |simplero|   0 | 748 |  77 |  77 |   0 |  0 |   0 |   0 |      --      | 7.812881e+00 |    Inf | unknown
r 0.1s|     1 |     0 |  1187 |     - |simplero|   0 | 748 |  77 |  77 |   0 |  0 |   0 |   0 |      --      | 7.774131e+00 |    Inf | unknown
r 0.1s|     1 |     0 |  1192 |     - |simplero|   0 | 748 |  77 |  77 |   0 |  0 |   0 |   0 |      --      | 7.768327e+00 |    Inf | unknown
r 0.1s|     1 |     0 |  1226 |     - |simplero|   0 | 759 |  77 |  77 |   0 |  0 |   0 |   0 |      --      | 7.282278e+00 |    Inf | unknown
r 0.1s|     1 |     0 |  1231 |     - |simplero|   0 | 759 |  77 |  77 |   0 |  0 |   0 |   0 |      --      | 7.271454e+00 |    Inf | unknown
r 0.1s|     1 |     0 |  1233 |     - |simplero|   0 | 759 |  77 |  77 |   0 |  0 |   0 |   0 |      --      | 7.271308e+00 |    Inf | unknown
r 0.1s|     1 |     0 |  1262 |     - |simplero|   0 | 770 |  77 |  77 |   0 |  0 |   0 |   0 |      --      | 6.736708e+00 |    Inf | unknown
 time | node  | left  |LP iter|LP it/n|mem/heur|mdpt |vars |cons |rows |cuts |sepa|confs|strbr|  dualbound   | primalbound  |  gap   | compl. 
r 0.1s|     1 |     0 |  1297 |     - |simplero|   0 | 770 |  77 |  77 |   0 |  0 |   0 |   0 |      --      | 6.435833e+00 |    Inf | unknown
r 0.1s|     1 |     0 |  1316 |     - |simplero|   0 | 770 |  77 |  77 |   0 |  0 |   0 |   0 |      --      | 6.382810e+00 |    Inf | unknown
r 0.1s|     1 |     0 |  1318 |     - |simplero|   0 | 770 |  77 |  77 |   0 |  0 |   0 |   0 |      --      | 6.382486e+00 |    Inf | unknown
r 0.1s|     1 |     0 |  1343 |     - |simplero|   0 | 781 |  77 |  77 |   0 |  0 |   0 |   0 |      --      | 5.972886e+00 |    Inf | unknown
r 0.1s|     1 |     0 |  1354 |     - |simplero|   0 | 781 |  77 |  77 |   0 |  0 |   0 |   0 |      --      | 5.965320e+00 |    Inf | unknown
r 0.1s|     1 |     0 |  1355 |     - |simplero|   0 | 781 |  77 |  77 |   0 |  0 |   0 |   0 |      --      | 5.965102e+00 |    Inf | unknown
r 0.1s|     1 |     0 |  1394 |     - |simplero|   0 | 792 |  77 |  77 |   0 |  0 |   0 |   0 |      --      | 5.463676e+00 |    Inf | unknown
r 0.1s|     1 |     0 |  1407 |     - |simplero|   0 | 792 |  77 |  77 |   0 |  0 |   0 |   0 |      --      | 5.424299e+00 |    Inf | unknown
r 0.1s|     1 |     0 |  1449 |     - |simplero|   0 | 803 |  77 |  77 |   0 |  0 |   0 |   0 |      --      | 4.514525e+00 |    Inf | unknown
r 0.1s|     1 |     0 |  1464 |     - |simplero|   0 | 803 |  77 |  77 |   0 |  0 |   0 |   0 |      --      | 4.456430e+00 |    Inf | unknown
r 0.1s|     1 |     0 |  1501 |     - |simplero|   0 | 814 |  77 |  77 |   0 |  0 |   0 |   0 |      --      | 4.059064e+00 |    Inf | unknown
r 0.1s|     1 |     0 |  1507 |     - |simplero|   0 | 814 |  77 |  77 |   0 |  0 |   0 |   0 |      --      | 4.051093e+00 |    Inf | unknown
r 0.1s|     1 |     0 |  1512 |     - |simplero|   0 | 814 |  77 |  77 |   0 |  0 |   0 |   0 |      --      | 4.046454e+00 |    Inf | unknown
r 0.1s|     1 |     0 |  1552 |     - |simplero|   0 | 825 |  77 |  77 |   0 |  0 |   0 |   0 |      --      | 3.616453e+00 |    Inf | unknown
r 0.1s|     1 |     0 |  1556 |     - |simplero|   0 | 825 |  77 |  77 |   0 |  0 |   0 |   0 |      --      | 3.615448e+00 |    Inf | unknown
 time | node  | left  |LP iter|LP it/n|mem/heur|mdpt |vars |cons |rows |cuts |sepa|confs|strbr|  dualbound   | primalbound  |  gap   | compl. 
r 0.1s|     1 |     0 |  1583 |     - |simplero|   0 | 836 |  77 |  77 |   0 |  0 |   0 |   0 |      --      | 3.450875e+00 |    Inf | unknown
r 0.1s|     1 |     0 |  1589 |     - |simplero|   0 | 836 |  77 |  77 |   0 |  0 |   0 |   0 |      --      | 3.448576e+00 |    Inf | unknown
  0.1s|     1 |     0 |  1632 |     - |  4116k |   0 | 847 |  77 |  77 |   0 |  0 |   0 |   0 |      --      | 3.448576e+00 |    Inf | unknown
r 0.1s|     1 |     0 |  1632 |     - |simplero|   0 | 847 |  77 |  77 |   0 |  0 |   0 |   0 |      --      | 3.004827e+00 |    Inf | unknown
r 0.1s|     1 |     0 |  1637 |     - |simplero|   0 | 847 |  77 |  77 |   0 |  0 |   0 |   0 |      --      | 2.989840e+00 |    Inf | unknown
r 0.1s|     1 |     0 |  1684 |     - |simplero|   0 | 858 |  77 |  77 |   0 |  0 |   0 |   0 |      --      | 2.645876e+00 |    Inf | unknown
r 0.1s|     1 |     0 |  1692 |     - |simplero|   0 | 858 |  77 |  77 |   0 |  0 |   0 |   0 |      --      | 2.626307e+00 |    Inf | unknown
r 0.1s|     1 |     0 |  1702 |     - |simplero|   0 | 858 |  77 |  77 |   0 |  0 |   0 |   0 |      --      | 2.611324e+00 |    Inf | unknown
r 0.1s|     1 |     0 |  1709 |     - |simplero|   0 | 858 |  77 |  77 |   0 |  0 |   0 |   0 |      --      | 2.606142e+00 |    Inf | unknown
r 0.1s|     1 |     0 |  1746 |     - |simplero|   0 | 869 |  77 |  77 |   0 |  0 |   0 |   0 |      --      | 2.269699e+00 |    Inf | unknown
r 0.1s|     1 |     0 |  1756 |     - |simplero|   0 | 869 |  77 |  77 |   0 |  0 |   0 |   0 |      --      | 2.245757e+00 |    Inf | unknown
r 0.1s|     1 |     0 |  1788 |     - |simplero|   0 | 880 |  77 |  77 |   0 |  0 |   0 |   0 |      --      | 2.115863e+00 |    Inf | unknown
r 0.1s|     1 |     0 |  1792 |     - |simplero|   0 | 880 |  77 |  77 |   0 |  0 |   0 |   0 |      --      | 2.114782e+00 |    Inf | unknown
r 0.1s|     1 |     0 |  1813 |     - |simplero|   0 | 891 |  77 |  77 |   0 |  0 |   0 |   0 |      --      | 2.003332e+00 |    Inf | unknown
r 0.1s|     1 |     0 |  1816 |     - |simplero|   0 | 891 |  77 |  77 |   0 |  0 |   0 |   0 |      --      | 2.001699e+00 |    Inf | unknown
 time | node  | left  |LP iter|LP it/n|mem/heur|mdpt |vars |cons |rows |cuts |sepa|confs|strbr|  dualbound   | primalbound  |  gap   | compl. 
r 0.1s|     1 |     0 |  1844 |     - |simplero|   0 | 901 |  77 |  77 |   0 |  0 |   0 |   0 |      --      | 1.908139e+00 |    Inf | unknown
r 0.1s|     1 |     0 |  1851 |     - |simplero|   0 | 901 |  77 |  77 |   0 |  0 |   0 |   0 |      --      | 1.898355e+00 |    Inf | unknown
r 0.1s|     1 |     0 |  1881 |     - |simplero|   0 | 910 |  77 |  77 |   0 |  0 |   0 |   0 |      --      | 1.833866e+00 |    Inf | unknown
r 0.1s|     1 |     0 |  1898 |     - |simplero|   0 | 918 |  77 |  77 |   0 |  0 |   0 |   0 |      --      | 1.788196e+00 |    Inf | unknown
r 0.1s|     1 |     0 |  1900 |     - |simplero|   0 | 918 |  77 |  77 |   0 |  0 |   0 |   0 |      --      | 1.787879e+00 |    Inf | unknown
r 0.1s|     1 |     0 |  1903 |     - |simplero|   0 | 918 |  77 |  77 |   0 |  0 |   0 |   0 |      --      | 1.786658e+00 |    Inf | unknown
r 0.1s|     1 |     0 |  1913 |     - |simplero|   0 | 924 |  77 |  77 |   0 |  0 |   0 |   0 |      --      | 1.765000e+00 |    Inf | unknown
r 0.1s|     1 |     0 |  1931 |     - |simplero|   0 | 931 |  77 |  77 |   0 |  0 |   0 |   0 |      --      | 1.741667e+00 |    Inf | unknown
r 0.1s|     1 |     0 |  1939 |     - |simplero|   0 | 931 |  77 |  77 |   0 |  0 |   0 |   0 |      --      | 1.723333e+00 |    Inf | unknown
r 0.1s|     1 |     0 |  1948 |     - |simplero|   0 | 936 |  77 |  77 |   0 |  0 |   0 |   0 |      --      | 1.715385e+00 |    Inf | unknown
r 0.1s|     1 |     0 |  1968 |     - |simplero|   0 | 940 |  77 |  77 |   0 |  0 |   0 |   0 |      --      | 1.691358e+00 |    Inf | unknown
r 0.1s|     1 |     0 |  1979 |     - |simplero|   0 | 944 |  77 |  77 |   0 |  0 |   0 |   0 |      --      | 1.686667e+00 |    Inf | unknown
  0.1s|     1 |     0 |  1979 |     - |  4735k |   0 | 944 |  77 |  77 |   0 |  0 |   0 |   0 | 1.686667e+00 | 1.686667e+00 |   0.00%| unknown
  0.1s|     1 |     0 |  1979 |     - |  4735k |   0 | 944 |  77 |  77 |   0 |  0 |   0 |   0 | 1.686667e+00 | 1.686667e+00 |   0.00%| unknown

SCIP Status        : problem is solved [optimal solution found]
Solving Time (sec) : 0.10
Solving Nodes      : 1
Primal Bound       : +1.68666666666667e+00 (55 solutions)
Dual Bound         : +1.68666666666667e+00
Gap                : 0.00 %

written transformed problem to file <results_rootrelaxation/bin012_060_042.srr.lp>
written transformed problem to file <results_rootrelaxation/bin012_060_042.srr.cip>


SCIP version 8.0.3.5 [precision: 8 byte] [memory: block] [mode: optimized] [LP solver: Soplex 6.0.1.3] [GitHash: 438792519e]
Copyright (c) 2002-2023 Zuse Institute Berlin (ZIB)

External libraries: 
  Readline 8.1         GNU library for command line editing (gnu.org/s/readline)
  Soplex 6.0.1.3       Linear Programming Solver developed at Zuse Institute Berlin (soplex.zib.de) [GitHash: 713be0fe]
  CppAD 20180000.0     Algorithmic Differentiation of C++ algorithms developed by B. Bell (github.com/coin-or/CppAD)
  ZLIB 1.2.11          General purpose compression library by J. Gailly and M. Adler (zlib.net)
  bliss 0.77           Computing Graph Automorphism Groups by T. Junttila and P. Kaski (www.tcs.hut.fi/Software/bliss/)

user parameter file <scip.set> not found - using default parameters

srr/relaxation = TRUE

read problem <instances/bin012_060_042.srr>
============

Original problem: 
original problem has 0 variables (0 bin, 0 int, 0 impl, 0 cont) and 77 constraints

presolving:
presolving (1 rounds: 1 fast, 1 medium, 1 exhaustive):
 0 deleted vars, 0 deleted constraints, 0 added constraints, 0 tightened bounds, 0 added holes, 0 changed sides, 0 changed coefficients
 0 implications, 0 cliques
presolved problem has 0 variables (0 bin, 0 int, 0 impl, 0 cont) and 77 constraints
     77 constraints of type <linear>
Presolving Time: 0.00

 time | node  | left  |LP iter|LP it/n|mem/heur|mdpt |vars |cons |rows |cuts |sepa|confs|strbr|  dualbound   | primalbound  |  gap   | compl. 
  0.0s|     1 |     0 |     1 |     - |   710k |   0 |   1 |  77 |  77 |   0 |  0 |   0 |   0 |      --      |      --      |    Inf | unknown
r 0.0s|     1 |     0 |   834 |     - |simplero|   0 | 682 |  77 |  77 |   0 |  0 |   0 |   0 |      --      | 2.092619e+01 |    Inf | unknown
r 0.1s|     1 |     0 |   886 |     - |simplero|   0 | 693 |  77 |  77 |   0 |  0 |   0 |   0 |      --      | 1.840381e+01 |    Inf | unknown
r 0.1s|     1 |     0 |   930 |     - |simplero|   0 | 704 |  77 |  77 |   0 |  0 |   0 |   0 |      --      | 1.623186e+01 |    Inf | unknown
r 0.1s|     1 |     0 |  1001 |     - |simplero|   0 | 715 |  77 |  77 |   0 |  0 |   0 |   0 |      --      | 1.308634e+01 |    Inf | unknown
r 0.1s|     1 |     0 |  1070 |     - |simplero|   0 | 726 |  77 |  77 |   0 |  0 |   0 |   0 |      --      | 1.160308e+01 |    Inf | unknown
r 0.1s|     1 |     0 |  1120 |     - |simplero|   0 | 737 |  77 |  77 |   0 |  0 |   0 |   0 |      --      | 9.494514e+00 |    Inf | unknown
r 0.1s|     1 |     0 |  1127 |     - |simplero|   0 | 737 |  77 |  77 |   0 |  0 |   0 |   0 |      --      | 9.478438e+00 |    Inf | unknown
r 0.1s|     1 |     0 |  1176 |     - |simplero|   0 | 748 |  77 |  77 |   0 |  0 |   0 |   0 |      --      | 7.812881e+00 |    Inf | unknown
r 0.1s|     1 |     0 |  1187 |     - |simplero|   0 | 748 |  77 |  77 |   0 |  0 |   0 |   0 |      --      | 7.774131e+00 |    Inf | unknown
r 0.1s|     1 |     0 |  1192 |     - |simplero|   0 | 748 |  77 |  77 |   0 |  0 |   0 |   0 |      --      | 7.768327e+00 |    Inf | unknown
r 0.1s|     1 |     0 |  1226 |     - |simplero|   0 | 759 |  77 |  77 |   0 |  0 |   0 |   0 |      --      | 7.282278e+00 |    Inf | unknown
r 0.1s|     1 |     0 |  1231 |     - |simplero|   0 | 759 |  77 |  77 |   0 |  0 |   0 |   0 |      --      | 7.271454e+00 |    Inf | unknown
r 0.1s|     1 |     0 |  1233 |     - |simplero|   0 | 759 |  77 |  77 |   0 |  0 |   0 |   0 |      --      | 7.271308e+00 |    Inf | unknown
r 0.1s|     1 |     0 |  1262 |     - |simplero|   0 | 770 |  77 |  77 |   0 |  0 |   0 |   0 |      --      | 6.736708e+00 |    Inf | unknown
 time | node  | left  |LP iter|LP it/n|mem/heur|mdpt |vars |cons |rows |cuts |sepa|confs|strbr|  dualbound   | primalbound  |  gap   | compl. 
r 0.1s|     1 |     0 |  1297 |     - |simplero|   0 | 770 |  77 |  77 |   0 |  0 |   0 |   0 |      --      | 6.435833e+00 |    Inf | unknown
r 0.1s|     1 |     0 |  1316 |     - |simplero|   0 | 770 |  77 |  77 |   0 |  0 |   0 |   0 |      --      | 6.382810e+00 |    Inf | unknown
r 0.1s|     1 |     0 |  1318 |     - |simplero|   0 | 770 |  77 |  77 |   0 |  0 |   0 |   0 |      --      | 6.382486e+00 |    Inf | unknown
r 0.1s|     1 |     0 |  1343 |     - |simplero|   0 | 781 |  77 |  77 |   0 |  0 |   0 |   0 |      --      | 5.972886e+00 |    Inf | unknown
r 0.1s|     1 |     0 |  1354 |     - |simplero|   0 | 781 |  77 |  77 |   0 |  0 |   0 |   0 |      --      | 5.965320e+00 |    Inf | unknown
r 0.1s|     1 |     0 |  1355 |     - |simplero|   0 | 781 |  77 |  77 |   0 |  0 |   0 |   0 |      --      | 5.965102e+00 |    Inf | unknown
r 0.1s|     1 |     0 |  1394 |     - |simplero|   0 | 792 |  77 |  77 |   0 |  0 |   0 |   0 |      --      | 5.463676e+00 |    Inf | unknown
r 0.1s|     1 |     0 |  1407 |     - |simplero|   0 | 792 |  77 |  77 |   0 |  0 |   0 |   0 |      --      | 5.424299e+00 |    Inf | unknown
r 0.1s|     1 |     0 |  1449 |     - |simplero|   0 | 803 |  77 |  77 |   0 |  0 |   0 |   0 |      --      | 4.514525e+00 |    Inf | unknown
r 0.1s|     1 |     0 |  1464 |     - |simplero|   0 | 803 |  77 |  77 |   0 |  0 |   0 |   0 |      --      | 4.456430e+00 |    Inf | unknown
r 0.1s|     1 |     0 |  1501 |     - |simplero|   0 | 814 |  77 |  77 |   0 |  0 |   0 |   0 |      --      | 4.059064e+00 |    Inf | unknown
r 0.1s|     1 |     0 |  1507 |     - |simplero|   0 | 814 |  77 |  77 |   0 |  0 |   0 |   0 |      --      | 4.051093e+00 |    Inf | unknown
r 0.1s|     1 |     0 |  1512 |     - |simplero|   0 | 814 |  77 |  77 |   0 |  0 |   0 |   0 |      --      | 4.046454e+00 |    Inf | unknown
r 0.1s|     1 |     0 |  1552 |     - |simplero|   0 | 825 |  77 |  77 |   0 |  0 |   0 |   0 |      --      | 3.616453e+00 |    Inf | unknown
r 0.1s|     1 |     0 |  1556 |     - |simplero|   0 | 825 |  77 |  77 |   0 |  0 |   0 |   0 |      --      | 3.615448e+00 |    Inf | unknown
 time | node  | left  |LP iter|LP it/n|mem/heur|mdpt |vars |cons |rows |cuts |sepa|confs|strbr|  dualbound   | primalbound  |  gap   | compl. 
r 0.1s|     1 |     0 |  1583 |     - |simplero|   0 | 836 |  77 |  77 |   0 |  0 |   0 |   0 |      --      | 3.450875e+00 |    Inf | unknown
r 0.1s|     1 |     0 |  1589 |     - |simplero|   0 | 836 |  77 |  77 |   0 |  0 |   0 |   0 |      --      | 3.448576e+00 |    Inf | unknown
  0.1s|     1 |     0 |  1632 |     - |  4116k |   0 | 847 |  77 |  77 |   0 |  0 |   0 |   0 |      --      | 3.448576e+00 |    Inf | unknown
r 0.1s|     1 |     0 |  1632 |     - |simplero|   0 | 847 |  77 |  77 |   0 |  0 |   0 |   0 |      --      | 3.004827e+00 |    Inf | unknown
r 0.1s|     1 |     0 |  1637 |     - |simplero|   0 | 847 |  77 |  77 |   0 |  0 |   0 |   0 |      --      | 2.989840e+00 |    Inf | unknown
r 0.1s|     1 |     0 |  1684 |     - |simplero|   0 | 858 |  77 |  77 |   0 |  0 |   0 |   0 |      --      | 2.645876e+00 |    Inf | unknown
r 0.1s|     1 |     0 |  1692 |     - |simplero|   0 | 858 |  77 |  77 |   0 |  0 |   0 |   0 |      --      | 2.626307e+00 |    Inf | unknown
r 0.1s|     1 |     0 |  1702 |     - |simplero|   0 | 858 |  77 |  77 |   0 |  0 |   0 |   0 |      --      | 2.611324e+00 |    Inf | unknown
r 0.1s|     1 |     0 |  1709 |     - |simplero|   0 | 858 |  77 |  77 |   0 |  0 |   0 |   0 |      --      | 2.606142e+00 |    Inf | unknown
r 0.1s|     1 |     0 |  1746 |     - |simplero|   0 | 869 |  77 |  77 |   0 |  0 |   0 |   0 |      --      | 2.269699e+00 |    Inf | unknown
r 0.1s|     1 |     0 |  1756 |     - |simplero|   0 | 869 |  77 |  77 |   0 |  0 |   0 |   0 |      --      | 2.245757e+00 |    Inf | unknown
r 0.1s|     1 |     0 |  1788 |     - |simplero|   0 | 880 |  77 |  77 |   0 |  0 |   0 |   0 |      --      | 2.115863e+00 |    Inf | unknown
r 0.1s|     1 |     0 |  1792 |     - |simplero|   0 | 880 |  77 |  77 |   0 |  0 |   0 |   0 |      --      | 2.114782e+00 |    Inf | unknown
r 0.1s|     1 |     0 |  1813 |     - |simplero|   0 | 891 |  77 |  77 |   0 |  0 |   0 |   0 |      --      | 2.003332e+00 |    Inf | unknown
r 0.1s|     1 |     0 |  1816 |     - |simplero|   0 | 891 |  77 |  77 |   0 |  0 |   0 |   0 |      --      | 2.001699e+00 |    Inf | unknown
 time | node  | left  |LP iter|LP it/n|mem/heur|mdpt |vars |cons |rows |cuts |sepa|confs|strbr|  dualbound   | primalbound  |  gap   | compl. 
r 0.1s|     1 |     0 |  1844 |     - |simplero|   0 | 901 |  77 |  77 |   0 |  0 |   0 |   0 |      --      | 1.908139e+00 |    Inf | unknown
r 0.1s|     1 |     0 |  1851 |     - |simplero|   0 | 901 |  77 |  77 |   0 |  0 |   0 |   0 |      --      | 1.898355e+00 |    Inf | unknown
r 0.1s|     1 |     0 |  1881 |     - |simplero|   0 | 910 |  77 |  77 |   0 |  0 |   0 |   0 |      --      | 1.833866e+00 |    Inf | unknown
r 0.1s|     1 |     0 |  1898 |     - |simplero|   0 | 918 |  77 |  77 |   0 |  0 |   0 |   0 |      --      | 1.788196e+00 |    Inf | unknown
r 0.1s|     1 |     0 |  1900 |     - |simplero|   0 | 918 |  77 |  77 |   0 |  0 |   0 |   0 |      --      | 1.787879e+00 |    Inf | unknown
r 0.1s|     1 |     0 |  1903 |     - |simplero|   0 | 918 |  77 |  77 |   0 |  0 |   0 |   0 |      --      | 1.786658e+00 |    Inf | unknown
r 0.1s|     1 |     0 |  1913 |     - |simplero|   0 | 924 |  77 |  77 |   0 |  0 |   0 |   0 |      --      | 1.765000e+00 |    Inf | unknown
r 0.1s|     1 |     0 |  1931 |     - |simplero|   0 | 931 |  77 |  77 |   0 |  0 |   0 |   0 |      --      | 1.741667e+00 |    Inf | unknown
r 0.1s|     1 |     0 |  1939 |     - |simplero|   0 | 931 |  77 |  77 |   0 |  0 |   0 |   0 |      --      | 1.723333e+00 |    Inf | unknown
r 0.1s|     1 |     0 |  1948 |     - |simplero|   0 | 936 |  77 |  77 |   0 |  0 |   0 |   0 |      --      | 1.715385e+00 |    Inf | unknown
r 0.1s|     1 |     0 |  1968 |     - |simplero|   0 | 940 |  77 |  77 |   0 |  0 |   0 |   0 |      --      | 1.691358e+00 |    Inf | unknown
r 0.1s|     1 |     0 |  1979 |     - |simplero|   0 | 944 |  77 |  77 |   0 |  0 |   0 |   0 |      --      | 1.686667e+00 |    Inf | unknown
  0.1s|     1 |     0 |  1979 |     - |  4735k |   0 | 944 |  77 |  77 |   0 |  0 |   0 |   0 | 1.686667e+00 | 1.686667e+00 |   0.00%| unknown
  0.1s|     1 |     0 |  1979 |     - |  4735k |   0 | 944 |  77 |  77 |   0 |  0 |   0 |   0 | 1.686667e+00 | 1.686667e+00 |   0.00%| unknown

SCIP Status        : problem is solved [optimal solution found]
Solving Time (sec) : 0.13
Solving Nodes      : 1
Primal Bound       : +1.68666666666667e+00 (55 solutions)
Dual Bound         : +1.68666666666667e+00
Gap                : 0.00 %

written transformed problem to file <results_rootrelaxation/bin012_060_042.srr.lp>
written transformed problem to file <results_rootrelaxation/bin012_060_042.srr.cip>

written solution information to file <results_rootrelaxation/bin012_060_042.srr.sol>



